
Welcome to IBM(R) ILOG(R) CPLEX(R) Interactive Optimizer 22.1.1.0
  with Simplex, Mixed Integer & Barrier Optimizers
5725-A06 5725-A29 5724-Y48 5724-Y49 5724-Y54 5724-Y55 5655-Y21
Copyright IBM Corp. 1988, 2022.  All Rights Reserved.

Type 'help' for a list of available commands.
Type 'help' followed by a command name for more
information on commands.

CPLEX> Selected objective sense:  MINIMIZE
Selected objective  name:  00000000
Selected RHS        name:  RHS1
Selected bound      name:  BOUND
Problem 'ee.mps' read.
Read time = 0.02 sec. (3.14 ticks)
CPLEX> New value for time limit in seconds: 7200
CPLEX> New value for parallel optimization mode: -1
CPLEX> New value for default parallel thread count: 40
CPLEX> New value for mixed integer optimality gap tolerance: 1e-13
CPLEX> Version identifier: 22.1.1.0 | 2022-11-28 | 9160aff4d
CPXPARAM_Threads                                 40
CPXPARAM_Parallel                                -1
CPXPARAM_TimeLimit                               7200
CPXPARAM_MIP_Tolerances_MIPGap                   1e-13
Found incumbent of value 0.000000 after 0.00 sec. (0.31 ticks)
Tried aggregator 2 times.
MIP Presolve eliminated 179 rows and 2745 columns.
MIP Presolve modified 5862 coefficients.
Aggregator did 713 substitutions.
Reduced MIP has 3624 rows, 7739 columns, and 28646 nonzeros.
Reduced MIP has 7739 binaries, 0 generals, 0 SOSs, and 0 indicators.
Presolve time = 0.07 sec. (68.56 ticks)
Probing time = 0.03 sec. (5.31 ticks)
Tried aggregator 1 time.
Detecting symmetries...
Reduced MIP has 3624 rows, 7739 columns, and 28646 nonzeros.
Reduced MIP has 7739 binaries, 0 generals, 0 SOSs, and 0 indicators.
Presolve time = 0.02 sec. (21.82 ticks)
Probing time = 0.02 sec. (5.09 ticks)
Clique table members: 18552.
MIP emphasis: balance optimality and feasibility.
MIP search method: dynamic search.
Parallel mode: opportunistic, using up to 40 threads.
Root relaxation solution time = 0.08 sec. (64.66 ticks)

        Nodes                                         Cuts/
   Node  Left     Objective  IInf  Best Integer    Best Bound    ItCnt     Gap

*     0+    0                            0.0000  -1.31000e+13              --- 
*     0+    0                      -5.49000e+12  -1.31000e+13           138.62%
      0     0  -1.30900e+13    90  -5.49000e+12  -1.30900e+13     1788  138.43%
*     0+    0                      -1.30900e+13  -1.30900e+13             0.00%
      0     0  -1.30900e+13   125  -1.30900e+13     Cuts: 113     2107    0.00%
*     0+    0                      -1.30900e+13  -1.30900e+13             0.00%
      0     0  -1.30900e+13   127  -1.30900e+13      Cuts: 66     2428    0.00%
*     0+    0                      -1.30900e+13  -1.30900e+13             0.00%
*     0+    0                      -1.30900e+13  -1.30900e+13             0.00%

Repeating presolve.
Tried aggregator 2 times.
MIP Presolve eliminated 1715 rows and 3897 columns.
MIP Presolve added 40 rows and 0 columns.
MIP Presolve modified 73 coefficients.
Aggregator did 442 substitutions.
Reduced MIP has 1507 rows, 3358 columns, and 11932 nonzeros.
Reduced MIP has 3358 binaries, 0 generals, 0 SOSs, and 0 indicators.
Presolve time = 0.04 sec. (48.88 ticks)
Probing fixed 1 vars, tightened 0 bounds.
Probing time = 0.03 sec. (10.57 ticks)
Tried aggregator 1 time.
Detecting symmetries...
MIP Presolve eliminated 14 rows and 10 columns.
Reduced MIP has 1493 rows, 3347 columns, and 11893 nonzeros.
Reduced MIP has 3347 binaries, 0 generals, 0 SOSs, and 0 indicators.
Presolve time = 0.02 sec. (16.54 ticks)
Represolve time = 0.11 sec. (91.57 ticks)
Probing time = 0.02 sec. (3.65 ticks)
Clique table members: 7912.
MIP emphasis: balance optimality and feasibility.
MIP search method: dynamic search.
Parallel mode: opportunistic, using up to 40 threads.
Root relaxation solution time = 0.04 sec. (26.54 ticks)

        Nodes                                         Cuts/
   Node  Left     Objective  IInf  Best Integer    Best Bound    ItCnt     Gap

*     0+    0                      -1.30900e+13  -1.30900e+13             0.00%
      0     0  -1.30900e+13    79  -1.30900e+13  -1.30900e+13     3376    0.00%
      0     0  -1.30900e+13   134  -1.30900e+13      Cuts: 51     3599    0.00%
      0     0  -1.30900e+13    85  -1.30900e+13      Cuts: 66     3880    0.00%
      0     0  -1.30900e+13   148  -1.30900e+13      Cuts: 32     3987    0.00%
      0     2  -1.30900e+13   132  -1.30900e+13  -1.30900e+13     3987    0.00%
Elapsed time = 1.77 sec. (1233.95 ticks, tree = 0.02 MB, solutions = 7)
   1037    24        cutoff        -1.30900e+13  -1.30900e+13    40352    0.00%

GUB cover cuts applied:  12
Clique cuts applied:  16
Cover cuts applied:  215
Flow cuts applied:  3
Mixed integer rounding cuts applied:  30
Zero-half cuts applied:  20
Lift and project cuts applied:  11
Gomory fractional cuts applied:  10

Root node processing (before b&c):
  Real time             =    1.39 sec. (1233.73 ticks)
Parallel b&c, 40 threads:
  Real time             =    0.95 sec. (278.73 ticks)
  Sync time (average)   =    0.40 sec.
  Wait time (average)   =    0.00 sec.
                          ------------
Total (root+branch&cut) =    2.34 sec. (1512.46 ticks)

Solution pool: 12 solutions saved.

MIP - Integer optimal solution:  Objective = -1.3089999890e+13
Solution time =    2.39 sec.  Iterations = 53253  Nodes = 1040
Deterministic time = 1512.49 ticks  (634.03 ticks/sec)

CPLEX> Solution 'p13' written to file 'ee.sol'.
CPLEX> 